c 
p cnf 10 40
-6 -1 2 0
2 9 -6 0
-7 6 2 0
8 1 -6 0
-4 1 8 0
-3 -2 4 0
2 8 9 0
-10 -5 -3 0
1 9 -3 0
8 5 3 0
-5 6 9 0
-4 3 7 0
5 2 8 0
1 7 6 0
-5 -6 -7 0
-1 -7 3 0
-6 9 7 0
-7 1 8 0
-3 -6 2 0
9 10 -8 0
3 7 4 0
10 -2 8 0
-1 8 10 0
9 -1 8 0
-5 6 -2 0
5 -2 9 0
7 2 8 0
1 -5 6 0
6 4 5 0
-8 -7 -2 0
-6 9 -4 0
8 3 2 0
5 3 -7 0
3 -8 -10 0
1 8 -10 0
-4 8 -10 0
2 -1 10 0
4 -1 -6 0
6 -10 3 0
6 8 10 0
